400
[40,41,43,45,46,47,48,53,54,55,56,57,58,59,61,62,63,64,65,66,67,69,72,73,74,75,76,78,79,82,83,84,85,86,88,89,90,91,92,93,94,96,97,98,100,101,102,103,105,106,107,108,109,111,112,113,114,115,117,120,123,124,126,127,128,130,131,132,133,134,136,137,138,139,140,142,143,146,147,148,150,151,152,153,154,155,156,157,158,159,160,161,163,164,165,167,172,175,176,177,178,181,182,183,184,185,188,189,190,192,193,194,195,196,197,198,199,201,202,203,204,206,207,208,210,211,212,213,220,222,224,225,226,227,228,229,230,231,232,233,234,235,236,239,240,241,242,243,244,245,246,247,248,249,251,252,253,254,256,257,258,260,261,262,263,265,267,268,269,270,272,273,274,275,276,279,280,281,282,284,286,288,291,292,293,294,295,296,297,298,300,301,302,303,304,305,307,308,309,311,312,313,314,315,316,317,319,320]
[1,4,1,1,3,3,1,2,1,3,2,2,1,1,1,1,2,1,2,1,2,1,4,2,3,1,5,1,3,4,3,2,1,1,2,1,2,3,2,4,1,1,4,4,2,3,3,3,3,1,3,1,1,4,1,2,2,1,2,3,3,1,2,2,3,1,1,1,4,1,1,1,2,3,1,1,1,3,1,3,1,1,1,2,1,2,4,1,3,1,1,1,1,3,2,1,2,1,2,1,1,1,3,3,2,2,1,1,1,4,3,1,1,2,1,1,2,2,2,3,2,2,2,3,2,3,1,2,2,3,2,4,4,2,3,4,3,3,1,1,2,1,1,4,1,1,1,1,1,1,1,2,1,1,1,1,1,2,4,2,1,2,3,2,3,2,1,1,1,2,2,3,1,1,1,1,3,3,1,2,3,2,1,2,3,1,2,3,2,3,1,1,1,1,3,2,3,2,4,2,1,2,1,1,1,3,2,1]
